1 2 3 6 7 12 14 15 16 18 20 23 24 27 29 34 37 39 40 45 46 48 51 56 57 62 63 65 67 70 72 73 74 76 77 78 80 81 83 84 85 86 88 94 97 98 101 102 103 104 105 107 108 110 118 119 122 125 126 127 128 130 138 139 142 143 146 148 152 155 160 163 164 169 171 175 177 178 185 191 195 196 197 198 199 200 202 204 205 206 207 208 215 218 219 220 221 222 223 227 229 235 237 241 243 245 249 250 253 255 256 257 260 261 263 266 267 272 273 274 277 278 281 285 286 288 289 292 296 297 